
List of user-set options:

                                    Name   Value                used
                           linear_solver = ma57                  yes
                  ma57_automatic_scaling = yes                   yes
                                max_iter = 1000                  yes
                             mu_strategy = adaptive              yes
                             output_file = Reusable-Launch-Vehicle-Entry-ProblemIPOPTinfo.txt  yes
                             print_level = 5                     yes
                      print_user_options = yes                   yes
                                     tol = 1e-007                yes
This is Ipopt version 3.11.0, running with linear solver ma57.

Number of nonzeros in equality constraint Jacobian...:    32435
Number of nonzeros in inequality constraint Jacobian.:     1844
Number of nonzeros in Lagrangian Hessian.............:     6532

Reallocating memory for MA57: lfact (374768)
Total number of variables............................:     1682
                     variables with only lower bounds:        0
                variables with lower and upper bounds:     1682
                     variables with only upper bounds:        0
Total number of equality constraints.................:     1345
Total number of inequality constraints...............:      505
        inequality constraints with only lower bounds:        0
   inequality constraints with lower and upper bounds:      505
        inequality constraints with only upper bounds:        0

iter    objective    inf_pr   inf_du lg(mu)  ||d||  lg(rg) alpha_du alpha_pr  ls
   0 1.4153670e+007 4.20e+000 1.00e+002   0.0 0.00e+000    -  0.00e+000 0.00e+000   0
   1 1.4109273e+007 3.48e+000 1.05e+003  -1.5 1.23e+000    -  4.09e-001 1.73e-001f  1
   2 1.3995873e+007 2.31e+000 1.46e+003  -1.8 4.25e-001    -  5.17e-001 3.34e-001h  1
   3 1.3744173e+007 8.06e-001 5.14e+002  -6.0 3.77e-001    -  6.54e-001 6.52e-001h  1
   4 1.3603228e+007 1.84e-001 2.29e+003  -6.4 1.80e-001    -  2.31e-001 7.71e-001h  1
   5 1.3602688e+007 1.80e-001 1.68e+002  -6.5 1.28e-001    -  5.94e-001 2.20e-002h  1
   6 1.3620493e+007 1.64e-001 3.34e+004  -1.4 1.96e+000   0.0 9.95e-001 8.89e-002f  1
   7 1.3604296e+007 8.60e-002 1.55e+004  -1.5 1.69e+000    -  5.26e-001 4.74e-001f  1
   8 1.3116162e+007 2.58e-002 4.95e+003  -7.5 1.93e-001    -  6.81e-001 7.00e-001h  1
   9 1.3527197e+007 8.44e-004 7.00e+002  -3.3 2.10e-001    -  8.76e-001 1.00e+000h  1
iter    objective    inf_pr   inf_du lg(mu)  ||d||  lg(rg) alpha_du alpha_pr  ls
  10 1.3809319e+007 1.00e-005 8.85e+001  -8.8 2.90e-001    -  8.72e-001 1.00e+000H  1
  11 1.3743890e+007 2.94e-003 2.54e+001  -4.4 9.26e-001    -  8.26e-001 1.00e+000h  1
  12 1.3495510e+007 3.77e-005 1.27e-002  -4.2 1.29e-002  -0.5 1.00e+000 1.00e+000h  1
  13 1.3529820e+007 2.67e-005 1.19e-001  -4.7 6.89e-003  -1.0 9.98e-001 1.00e+000h  1
  14 1.3503317e+007 6.94e-005 5.45e+000  -5.2 2.37e-002  -1.4 1.00e+000 7.18e-001h  1
  15 1.3444875e+007 3.13e-004 2.24e+000  -5.0 5.79e-002  -1.9 1.00e+000 6.99e-001h  1
  16 1.3314583e+007 8.21e-004 6.97e+000  -5.1 1.36e-001  -2.4 1.00e+000 4.08e-001h  1
  17 1.3151378e+007 3.10e-003 1.85e+001  -4.4 1.39e+000  -2.9 1.00e+000 2.71e-001h  1
  18 1.3065683e+007 3.66e-003 1.50e+001  -3.9 4.35e+000    -  4.10e-001 1.94e-001h  1
  19 1.3209662e+007 2.98e-003 3.99e+000  -4.3 1.37e+000    -  6.97e-001 7.35e-001h  1
iter    objective    inf_pr   inf_du lg(mu)  ||d||  lg(rg) alpha_du alpha_pr  ls
  20 1.2596036e+007 5.64e-004 1.61e-001  -4.3 1.09e+000    -  9.32e-001 1.00e+000h  1
  21 1.2420305e+007 6.80e-004 1.82e-001  -4.6 7.32e-001    -  1.00e+000 1.00e+000h  1
  22 1.1938960e+007 1.41e-003 1.96e-001  -4.9 1.14e+000    -  1.00e+000 1.00e+000h  1
  23 1.1612115e+007 3.76e-003 4.34e-001  -5.4 1.09e+000    -  3.45e-001 6.40e-001h  1
  24 1.1473286e+007 5.33e-002 3.66e-001  -5.1 1.67e+000    -  7.81e-001 5.13e-001h  1
  25 1.1462540e+007 3.78e-003 4.91e-001  -4.4 4.39e+000    -  2.05e-001 3.09e-001h  1
  26 1.1690480e+007 1.61e-003 1.35e-001  -5.1 1.28e+000    -  1.00e+000 1.00e+000h  1
  27 1.1395459e+007 5.70e-002 7.21e-001  -5.2 7.61e-001    -  5.02e-001 8.58e-001h  1
  28 1.1337847e+007 9.38e-004 2.99e-002  -5.4 2.77e-001  -3.3 1.00e+000 1.00e+000h  1
  29 1.1276527e+007 1.19e-003 1.49e-001  -4.8 2.38e-001  -3.8 1.00e+000 1.00e+000h  1
iter    objective    inf_pr   inf_du lg(mu)  ||d||  lg(rg) alpha_du alpha_pr  ls
  30 1.1548723e+007 4.57e-004 3.73e-002  -4.9 3.15e-001    -  1.00e+000 1.00e+000H  1
  31 1.1549082e+007 4.06e-003 5.14e-002  -5.0 1.66e+000    -  2.04e-001 3.91e-001h  1
  32 1.1542782e+007 5.37e-003 3.62e-001  -5.0 4.75e+000    -  7.86e-002 1.81e-001f  1
  33 1.1516272e+007 4.69e-003 4.92e-001  -5.0 1.02e+000  -4.3 1.84e-001 7.74e-001h  1
  34 1.1502526e+007 3.54e-003 2.55e-001  -5.0 3.12e+000  -3.0 2.41e-001 3.20e-001f  1
  35 1.1479629e+007 1.74e-003 1.69e+001  -5.0 6.42e-001  -2.5 9.26e-002 1.00e+000f  1
  36 1.1377772e+007 5.10e-005 2.27e+000  -5.0 4.99e-002  -2.1 9.26e-001 1.00e+000h  1
  37 1.1322062e+007 1.10e-004 2.26e-002  -5.2 1.20e-001  -2.6 1.00e+000 1.00e+000h  1
  38 1.1261951e+007 2.30e-003 3.77e-001  -5.0 5.49e-001  -3.1 1.00e+000 9.77e-001h  1
  39 1.1276367e+007 2.05e-003 7.19e+000  -4.5 1.21e+000  -3.5 1.00e+000 8.74e-002h  2
iter    objective    inf_pr   inf_du lg(mu)  ||d||  lg(rg) alpha_du alpha_pr  ls
  40 1.1277869e+007 2.03e-003 5.12e+000  -4.5 1.20e+000    -  8.02e-001 6.50e-003h  7
  41 1.1687759e+007 4.83e-005 7.29e-002  -4.7 2.45e+000    -  1.00e+000 1.00e+000H  1
  42 1.1678235e+007 1.84e-003 1.18e-001  -4.8 1.59e+000    -  2.54e-001 3.41e-001H  1
  43 1.1658190e+007 1.06e-003 5.50e-001  -4.8 6.16e-001    -  3.95e-001 1.00e+000f  1
  44 1.1619122e+007 9.90e-004 4.49e-004  -4.8 3.94e-001    -  1.00e+000 1.00e+000h  1
  45 1.1617752e+007 1.40e-003 1.38e-003  -4.8 5.44e-001    -  1.00e+000 1.00e+000h  1
  46 1.1618326e+007 2.10e-003 6.13e-002  -4.8 5.76e-001    -  7.84e-001 5.00e-001h  2
  47 1.1617146e+007 2.69e-003 1.74e-002  -4.8 4.32e+000    -  2.06e-001 1.74e-001h  2
  48 1.1617342e+007 2.91e-003 3.40e-001  -4.8 1.57e+000    -  9.00e-001 2.15e-001h  2
  49 1.1617873e+007 1.05e-003 3.53e-004  -4.8 6.77e-001    -  1.00e+000 1.00e+000h  1
iter    objective    inf_pr   inf_du lg(mu)  ||d||  lg(rg) alpha_du alpha_pr  ls
  50 1.1617247e+007 7.41e-004 2.93e-004  -4.8 2.97e-001    -  1.00e+000 1.00e+000h  1
  51 1.1617319e+007 5.38e-004 1.49e-004  -4.8 2.29e-001    -  1.00e+000 1.00e+000h  1
  52 1.1617270e+007 1.45e-006 1.90e-004  -4.8 1.44e-001    -  1.00e+000 1.00e+000H  1
  53 1.1617230e+007 3.28e-006 1.68e-004  -4.8 1.35e-002    -  1.00e+000 1.00e+000h  1
  54 1.1602643e+007 2.19e-003 1.55e-001  -5.4 1.06e+000    -  9.95e-001 8.77e-001h  1
  55 1.1296002e+007 8.79e-005 2.21e-002  -5.5 1.01e-001  -4.0 1.00e+000 1.00e+000h  1
  56 1.1245505e+007 2.19e-004 5.40e-002  -5.1 1.56e-001  -4.5 1.00e+000 1.00e+000h  1
  57 1.1275039e+007 3.67e-005 4.07e-002  -5.4 5.34e-001    -  1.00e+000 1.00e+000H  1
  58 1.1268730e+007 1.16e-004 2.45e-002  -5.9 1.37e-001  -4.1 1.00e+000 1.00e+000h  1
  59 1.1204947e+007 2.24e-005 4.19e-003  -6.4 5.29e-002  -3.6 1.00e+000 1.00e+000h  1
iter    objective    inf_pr   inf_du lg(mu)  ||d||  lg(rg) alpha_du alpha_pr  ls
  60 1.1195488e+007 3.67e-005 6.11e-002  -6.0 1.75e-001  -4.1 1.00e+000 9.29e-001h  1
  61 1.1258429e+007 3.11e-005 1.10e-002  -5.5 1.61e-001  -4.6 1.00e+000 1.00e+000H  1
  62 1.1255907e+007 1.24e-004 7.03e-002  -5.9 2.77e-001    -  1.00e+000 9.45e-001h  1
  63 1.1247856e+007 1.03e-004 1.36e-001  -6.0 7.53e-001    -  1.00e+000 3.00e-001h  1
  64 1.1228722e+007 1.25e-002 3.40e-002  -6.0 4.41e-001    -  1.00e+000 7.29e-001h  1
  65 1.1215229e+007 1.39e-005 4.76e-003  -6.0 1.08e-001    -  1.00e+000 1.00e+000f  1
  66 1.1203122e+007 6.34e-006 1.00e-003  -6.0 8.41e-002    -  1.00e+000 1.00e+000h  1
  67 1.1205677e+007 6.53e-007 1.92e-004  -6.0 1.66e-002    -  1.00e+000 1.00e+000h  1
  68 1.1204451e+007 1.05e-004 1.17e-002  -6.4 1.61e-001    -  9.95e-001 9.65e-001h  1
  69 1.1190331e+007 5.59e-005 9.55e-003  -6.5 2.77e-001  -5.1 4.24e-001 4.72e-001h  1
iter    objective    inf_pr   inf_du lg(mu)  ||d||  lg(rg) alpha_du alpha_pr  ls
  70 1.1179777e+007 4.55e-005 7.88e-004  -6.8 1.27e-001  -5.6 1.00e+000 1.00e+000h  1
  71 1.1181598e+007 1.79e-005 3.15e-003  -7.2 6.35e-002  -5.1 1.00e+000 1.00e+000h  1
Reallocating memory for MA57: lfact (394443)
  72 1.1173494e+007 1.07e-005 4.23e-003  -7.7 3.98e-002  -4.7 1.00e+000 1.00e+000h  1
  73 1.1163202e+007 7.82e-006 4.41e-003  -7.2 1.21e-001  -5.2 1.00e+000 9.65e-001h  1
  74 1.1168584e+007 1.35e-007 9.34e-004  -7.4 1.36e-001  -5.7 1.00e+000 1.00e+000H  1
  75 1.1168527e+007 4.66e-006 2.52e-004  -7.9 8.29e-002  -5.2 1.00e+000 1.00e+000h  1
  76 1.1168154e+007 3.37e-005 5.65e-002  -7.0 3.38e-001  -5.7 1.00e+000 7.94e-001h  1
  77 1.1168588e+007 2.77e-005 4.47e-002  -7.1 6.42e-001    -  7.79e-001 1.90e-001h  2
  78 1.1170985e+007 4.45e-006 8.46e-004  -7.1 1.04e-001    -  1.00e+000 1.00e+000h  1
  79 1.1173135e+007 6.82e-007 2.69e-004  -7.1 2.15e-002    -  1.00e+000 1.00e+000h  1
iter    objective    inf_pr   inf_du lg(mu)  ||d||  lg(rg) alpha_du alpha_pr  ls
  80 1.1172366e+007 5.49e-006 1.66e-003  -7.6 2.21e-001    -  1.00e+000 9.80e-001h  1
  81 1.1169885e+007 3.64e-006 3.49e-002  -7.7 4.20e-001    -  1.00e+000 6.44e-001h  1
  82 1.1166245e+007 1.24e-006 4.89e-004  -7.7 7.67e-002    -  1.00e+000 1.00e+000f  1
  83 1.1165049e+007 3.46e-006 4.94e-003  -8.3 1.26e-001    -  1.00e+000 9.35e-001h  1
  84 1.1161576e+007 1.52e-006 5.98e-004  -9.2 7.77e-002    -  1.00e+000 1.00e+000h  1
  85 1.1160052e+007 3.44e-007 8.59e-005 -10.7 4.39e-002    -  1.00e+000 1.00e+000h  1
Reallocating memory for MA57: lfact (430503)
  86 1.1159834e+007 1.72e-008 2.44e-006 -11.3 1.22e-002    -  1.00e+000 1.00e+000h  1
  87 1.1159830e+007 9.43e-011 1.12e-006 -11.3 9.47e-004    -  1.00e+000 1.00e+000h  1
  88 1.1159830e+007 1.00e-009 7.59e-007 -11.3 3.34e-004    -  1.00e+000 1.00e+000h  1
  89 1.1159829e+007 1.10e-010 1.12e-006 -11.3 8.27e-004    -  1.00e+000 1.00e+000h  1
iter    objective    inf_pr   inf_du lg(mu)  ||d||  lg(rg) alpha_du alpha_pr  ls
  90 1.1159830e+007 8.95e-014 5.51e-007 -11.3 9.33e-004    -  1.00e+000 1.00e+000H  1
  91 1.1159830e+007 4.52e-012 1.06e-006 -11.3 1.36e-004    -  1.00e+000 1.00e+000h  1
  92 1.1159830e+007 1.00e-009 5.49e-007 -11.3 5.38e-004    -  1.00e+000 1.00e+000h  1
  93 1.1159829e+007 1.00e-009 6.15e-007 -11.3 5.10e-004    -  1.00e+000 1.00e+000h  1
  94 1.1159830e+007 2.85e-011 6.60e-007 -11.3 4.16e-004    -  1.00e+000 1.00e+000h  1
  95 1.1159830e+007 4.98e-012 1.12e-006 -11.3 1.90e-004    -  1.00e+000 1.00e+000h  1
  96 1.1159830e+007 1.00e-009 1.06e-006 -11.3 7.98e-004    -  1.00e+000 1.00e+000h  1
  97 1.1159829e+007 1.00e-009 1.12e-006 -11.3 8.38e-004    -  1.00e+000 1.00e+000h  1
  98 1.1159829e+007 5.00e-010 6.85e-005 -11.3 3.21e-004    -  1.00e+000 5.00e-001h  2
  99 1.1159830e+007 2.50e-010 1.71e-005 -11.3 1.88e-004    -  1.00e+000 5.00e-001h  2
iter    objective    inf_pr   inf_du lg(mu)  ||d||  lg(rg) alpha_du alpha_pr  ls
 100 1.1159829e+007 3.11e-014 1.06e-006 -11.3 5.24e-004    -  1.00e+000 1.00e+000H  1
 101 1.1159829e+007 1.00e-009 1.12e-006 -11.3 6.47e-004    -  1.00e+000 1.00e+000h  1
 102 1.1159830e+007 1.00e-009 1.06e-006 -11.3 4.53e-004    -  1.00e+000 1.00e+000h  1
 103 1.1159829e+007 1.00e-009 1.12e-006 -11.3 2.48e-004    -  1.00e+000 1.00e+000h  1
 104 1.1159829e+007 4.04e-014 7.58e-007 -11.3 5.17e-004    -  1.00e+000 1.00e+000H  1
 105 1.1159829e+007 9.96e-012 1.12e-006 -11.3 2.64e-004    -  1.00e+000 1.00e+000h  1
 106 1.1159830e+007 2.38e-014 7.59e-007 -11.3 2.86e-004    -  1.00e+000 1.00e+000H  1
 107 1.1159829e+007 2.10e-014 5.95e-007 -11.3 7.17e-004    -  1.00e+000 1.00e+000H  1
 108 1.1159829e+007 1.00e-009 1.12e-006 -11.3 6.15e-004    -  1.00e+000 1.00e+000h  1
 109 1.1159830e+007 1.00e-009 7.61e-007 -11.3 5.15e-004    -  1.00e+000 1.00e+000h  1
iter    objective    inf_pr   inf_du lg(mu)  ||d||  lg(rg) alpha_du alpha_pr  ls
 110 1.1159829e+007 1.19e-011 1.12e-006 -11.3 2.17e-004    -  1.00e+000 1.00e+000h  1
 111 1.1159829e+007 1.00e-009 7.65e-007 -11.3 4.71e-004    -  1.00e+000 1.00e+000h  1
 112 1.1159829e+007 1.00e-009 2.69e-004 -11.3 3.99e-004    -  1.00e+000 3.05e-005h 16
 113 1.1159829e+007 1.00e-009 2.69e-004 -11.3 3.99e-004    -  1.00e+000 1.53e-005h 17
 114 1.1159830e+007 3.50e-011 1.12e-006 -11.3 3.99e-004    -  1.00e+000 1.00e+000s 22
 115 1.1159830e+007 6.68e-012 2.46e-004 -11.3 9.73e-005    -  1.00e+000 0.00e+000S 22
 116 1.1159830e+007 4.09e-014 1.12e-006 -11.3 5.77e-004    -  1.00e+000 1.00e+000H  1
 117 1.1159830e+007 2.74e-014 1.06e-006 -11.3 3.49e-004    -  1.00e+000 1.00e+000H  1
 118 1.1159830e+007 1.00e-009 1.12e-006 -11.3 4.24e-004    -  1.00e+000 1.00e+000h  1
 119 1.1159829e+007 1.00e-009 1.12e-006 -11.3 5.81e-004    -  1.00e+000 1.00e+000h  1
iter    objective    inf_pr   inf_du lg(mu)  ||d||  lg(rg) alpha_du alpha_pr  ls
 120 1.1159829e+007 5.00e-010 5.54e-005 -11.3 5.66e-004    -  1.00e+000 5.00e-001h  2
 121 1.1159830e+007 1.00e-009 6.94e-007 -11.3 3.65e-004    -  1.00e+000 1.00e+000h  1
 122 1.1159829e+007 3.36e-011 1.12e-006 -11.3 4.33e-004    -  1.00e+000 1.00e+000h  1
 123 1.1159829e+007 1.00e-009 6.11e-007 -11.3 5.18e-004    -  1.00e+000 1.00e+000h  1
 124 1.1159829e+007 1.00e-009 2.06e-004 -11.3 4.24e-004    -  1.00e+000 1.53e-005h 17
 125 1.1159830e+007 3.23e-011 1.12e-006 -11.3 4.24e-004    -  1.00e+000 1.00e+000s 22
 126 1.1159830e+007 1.00e-009 2.75e-005 -11.3 2.86e-004    -  1.00e+000 0.00e+000S 22
 127 1.1159829e+007 5.32e-011 7.55e-007 -11.3 5.27e-004    -  1.00e+000 1.00e+000h  1
 128 1.1159829e+007 7.10e-011 1.12e-006 -11.3 6.74e-004    -  1.00e+000 1.00e+000h  1
 129 1.1159829e+007 6.68e-011 1.42e-004 -11.3 5.38e-004    -  1.00e+000 6.25e-002h  5
iter    objective    inf_pr   inf_du lg(mu)  ||d||  lg(rg) alpha_du alpha_pr  ls
 130 1.1159829e+007 1.00e-009 1.12e-006 -11.3 6.47e-004    -  1.00e+000 1.00e+000h  1
 131r1.1159829e+007 1.00e-009 9.99e+002  -7.5 0.00e+000    -  0.00e+000 4.77e-007R 22
 132r1.1159829e+007 9.63e-010 1.15e+002  -9.0 2.56e-002    -  8.85e-001 9.90e-004f  1
 133r1.1159845e+007 5.50e-006 9.97e+001  -9.0 9.24e-002    -  1.33e-001 8.76e-001f  1
 134r1.1164826e+007 2.13e-006 7.85e+001  -9.0 9.84e-002    -  2.14e-001 9.04e-001h  1
 135r1.1163406e+007 1.89e-007 1.36e+001  -9.0 2.12e-002    -  8.26e-001 1.00e+000h  1
 136r1.1163717e+007 4.11e-006 4.69e+000  -9.0 1.89e-002    -  6.56e-001 1.00e+000h  1
 137r1.1168144e+007 5.67e-006 2.29e+000  -9.0 3.42e-002    -  5.12e-001 1.00e+000h  1
 138r1.1174384e+007 7.16e-006 1.05e+000  -9.0 1.64e-002    -  5.41e-001 1.00e+000h  1
 139r1.1182686e+007 4.51e-006 4.78e-001  -9.0 2.86e-002    -  5.45e-001 1.00e+000h  1
iter    objective    inf_pr   inf_du lg(mu)  ||d||  lg(rg) alpha_du alpha_pr  ls
 140r1.1189773e+007 1.60e-005 2.68e-001  -9.0 8.19e-002    -  4.39e-001 1.00e+000h  1
 141r1.1177713e+007 9.85e-006 1.66e-001  -9.0 6.59e-002    -  3.83e-001 1.00e+000h  1
 142r1.1190929e+007 2.12e-005 3.79e-002  -9.0 8.80e-002    -  7.71e-001 1.00e+000h  1
 143r1.1210393e+007 1.93e-005 2.24e-002  -9.0 2.06e-001    -  4.08e-001 1.00e+000h  1
 144r1.1216538e+007 3.12e-005 6.61e-003  -9.0 7.94e-002    -  7.05e-001 1.00e+000h  1
 145r1.1227278e+007 2.42e-005 1.13e-003  -9.0 6.68e-002    -  8.29e-001 1.00e+000h  1
 146r1.1226585e+007 1.21e-006 2.36e-008  -9.0 2.05e-002    -  1.00e+000 1.00e+000h  1
 147r1.1225428e+007 1.03e-008 4.42e-011  -9.0 7.01e-004    -  1.00e+000 1.00e+000h  1
 148r1.1211160e+007 3.28e-005 5.48e-007  -9.3 9.77e-002    -  1.00e+000 1.00e+000h  1
 149r1.1213279e+007 6.34e-006 1.04e-007  -9.3 3.18e-002    -  1.00e+000 1.00e+000h  1
iter    objective    inf_pr   inf_du lg(mu)  ||d||  lg(rg) alpha_du alpha_pr  ls
 150r1.1214763e+007 1.13e-007 7.20e-010  -9.3 4.16e-003    -  1.00e+000 1.00e+000h  1
Restoration phase converged to a feasible point that is
unacceptable to the filter for the original problem.
Restoration phase in the restoration phase failed.

Number of Iterations....: 150

                                   (scaled)                 (unscaled)
Objective...............:  1.1214825829978348e+000   1.1214825829895411e+007
Dual infeasibility......:  1.0000000000040617e+002   9.9999999999666643e+008
Constraint violation....:  1.7010458745062352e-010   1.7010458745062352e-010
Complementarity.........:  5.0000001266236049e-010   5.0000001265866284e-003
Overall NLP error.......:  1.0000000000040617e+002   9.9999999999666643e+008


Number of objective function evaluations             = 308
Number of objective gradient evaluations             = 133
Number of equality constraint evaluations            = 308
Number of inequality constraint evaluations          = 308
Number of equality constraint Jacobian evaluations   = 153
Number of inequality constraint Jacobian evaluations = 153
Number of Lagrangian Hessian evaluations             = 151
Total CPU secs in IPOPT (w/o function evaluations)   =      5.608
Total CPU secs in NLP function evaluations           =     22.372

EXIT: Restoration Failed!
